(declare-fun ExpandObjSwitcher () Real)
(declare-fun CreateAsClass () Bool)
(declare-fun ExpandObjSwitcher_2 () Real)
(declare-fun CreateAsClass_2 () Bool)
(assert (= ExpandObjSwitcher 1.0))
(assert (not CreateAsClass))
(assert (= ExpandObjSwitcher_2 1.0))
(assert CreateAsClass_2)
(check-sat)
